(set-logic QF_SLID_LC)
;; size field
(declare-fun sz () (Field Int Int))

;; heap chunk
(define-fun hck ((?x Int) (?y Int)) Space
	(tospace
		(and
			(>= (- ?y ?x) 2)
			(tobool	(ssep
					(pto ?x (ref sz (- ?y ?x)))
					(blk (+ ?x 1) ?y)
				)
			)
		)
	)
)
;; heap list
(define-fun hls ((?x Int) (?y Int)) Space
	(tospace (or
		(and (= ?x ?y) (tobool emp))
		(exists ((?w Int))
			(tobool	(ssep
					(hck ?x ?w)
					(hls ?w ?y)
					)
		))
	))
)

;; variables
(declare-fun hst () Int)
(declare-fun hen () Int)
(declare-fun rsz () Int)
(declare-fun x0 () Int)
(declare-fun sz0 () Int)
(declare-fun x1 () Int)
(declare-fun sz1 () Int)
(declare-fun xnxt () Int)

(assert
	(and
	(distinct hst hen)
	(= hst x0)
	(= (+ x0 sz0) x1)
	(< sz0 rsz)
	(= (+ x1 sz1) xnxt)
	(>= sz1 rsz)
	(tobool (ssep
		(hck x0 x1)
		(hck x1 xnxt)
		(hls xnxt hen)
		)
	)
	)	)
(assert (not
	(tobool (ssep
		(hls hst xnxt)
		(hls xnxt hen)
	)	)
))
;; end of problem
(check-sat)
;; 1.23s unsat : the entl is true
